(set-logic QF_S)
(declare-fun var0 () String)
(declare-fun var1 () String)
(declare-fun var2 () String)
(declare-fun var3 () String)
(declare-fun var4 () String)
(declare-fun var5 () String)
(declare-fun var6 () String)
(declare-fun var7 () String)
(declare-fun var8 () String)
(declare-fun var9 () String)
(declare-fun var10 () String)
(declare-fun var11 () String)
(declare-fun var12 () String)
(declare-fun var13 () String)
(declare-fun var14 () String)
(declare-fun var15 () String)
(declare-fun var16 () String)
(declare-fun var17 () String)
(declare-fun var18 () String)
(declare-fun var19 () String)
(declare-fun var20 () String)
(declare-fun var21 () String)
(declare-fun var22 () String)
(declare-fun var23 () String)
(declare-fun var24 () String)
(declare-fun var25 () String)
(declare-fun var26 () String)
(declare-fun var27 () String)
(declare-fun var28 () String)
(declare-fun var29 () String)
(declare-fun var30 () String)
(declare-fun var31 () String)
(declare-fun var32 () String)
(declare-fun var33 () String)
(declare-fun var34 () String)
(declare-fun var35 () String)
(declare-fun var36 () String)
(declare-fun var37 () String)
(declare-fun var38 () String)
(declare-fun var39 () String)
(declare-fun var40 () String)
(declare-fun var41 () String)
(declare-fun var42 () String)
(declare-fun var43 () String)
(declare-fun var44 () String)
(declare-fun var45 () String)
(declare-fun var46 () String)
(declare-fun var47 () String)
(declare-fun var48 () String)
(declare-fun var49 () String)
(declare-fun var50 () String)
(declare-fun var51 () String)
(declare-fun var52 () String)
(declare-fun var53 () String)
(declare-fun var54 () String)
(declare-fun var55 () String)
(declare-fun var56 () String)
(declare-fun var57 () String)
(declare-fun var58 () String)
(declare-fun var59 () String)
(declare-fun var60 () String)
(assert (= var0 (str.++ var1 var2)))
(assert (= var2 (str.++ var3 var4)))
(assert (= var4 (str.++ var5 var6)))
(assert (= var6 (str.++ var7 var8)))
(assert (= var8 (str.++ var9 var10)))
(assert (= var10 (str.++ var11 var12)))
(assert (= var12 (str.++ var13 var14)))
(assert (= var14 (str.++ var15 var16)))
(assert (= var16 (str.++ var17 var18)))
(assert (= var18 (str.++ var19 var20)))
(assert (= var20 (str.++ var21 var22)))
(assert (= var22 (str.++ var23 var24)))
(assert (= var24 (str.++ var25 var26)))
(assert (= var26 (str.++ var27 var28)))
(assert (= var28 (str.++ var29 var30)))
(assert (= var30 (str.++ var31 var32)))
(assert (= var32 (str.++ var33 var34)))
(assert (= var34 (str.++ var35 var36)))
(assert (= var36 (str.++ var37 var38)))
(assert (= var38 (str.++ var39 var40)))
(assert (= var40 (str.++ var41 var42)))
(assert (= var42 (str.++ var43 var44)))
(assert (= var44 (str.++ var45 var46)))
(assert (= var46 (str.++ var47 var48)))
(assert (= var48 (str.++ var49 var50)))
(assert (= var50 (str.++ var51 var52)))
(assert (= var52 (str.++ var53 var54)))
(assert (= var54 (str.++ var55 var56)))
(assert (= var56 (str.++ var57 var58)))
(assert (= var58 (str.++ var59 var60)))
(assert (= var0 "solution"))
(assert (= "q" (str.at var20 405)))
(assert (= "W" (str.at var48 322)))
(assert (= "-" (str.at var49 968)))
(assert (= "~" (str.at var1 931)))
(assert (= "n" (str.at var57 796)))
(assert (= "q" (str.at var58 15)))
(assert (= "g" (str.at var29 201)))
(assert (= ";" (str.at var4 647)))
(assert (= "*" (str.at var0 427)))
(assert (= "I" (str.at var52 523)))
(assert (= "6" (str.at var27 588)))
(assert (= "." (str.at var49 969)))
(assert (= "s" (str.at var49 888)))
(assert (= ";" (str.at var26 804)))
(assert (= ";" (str.at var39 161)))
(assert (= "z" (str.at var54 81)))
(assert (= "C" (str.at var36 574)))
(assert (= ")" (str.at var22 415)))
(assert (= "X" (str.at var14 919)))
(assert (= "," (str.at var46 462)))
(assert (= "Y" (str.at var8 9)))
(assert (= "Q" (str.at var35 489)))
(assert (= ")" (str.at var22 464)))
(assert (= "b" (str.at var43 163)))
(assert (= "E" (str.at var1 618)))
(assert (= "|" (str.at var29 808)))
(assert (= "u" (str.at var44 194)))
(assert (= "1" (str.at var47 333)))
(assert (= "b" (str.at var15 183)))
(assert (= "A" (str.at var18 771)))
(assert (= "u" (str.at var0 241)))
(assert (= """" (str.at var28 218)))
(assert (= "," (str.at var26 372)))
(assert (= "e" (str.at var5 504)))
(assert (= ">" (str.at var31 774)))
(assert (= "T" (str.at var26 429)))
(assert (= ":" (str.at var7 508)))
(assert (= "`" (str.at var29 347)))
(assert (= "\\" (str.at var59 657)))
(assert (= "*" (str.at var4 940)))
(assert (= "a" (str.at var35 550)))
(assert (= "B" (str.at var11 690)))
(assert (= "L" (str.at var46 689)))
(assert (= "." (str.at var9 355)))
(assert (= "2" (str.at var3 623)))
(assert (= ")" (str.at var49 480)))
(assert (= "N" (str.at var59 596)))
(assert (= "p" (str.at var47 572)))
(assert (= "," (str.at var54 869)))
(assert (= ":" (str.at var48 175)))
(assert (= "<" (str.at var52 977)))
(assert (= "q" (str.at var27 320)))
(assert (= "3" (str.at var12 528)))
(assert (= "u" (str.at var53 779)))
(assert (= "J" (str.at var35 480)))
(assert (= "\\" (str.at var13 256)))
(assert (= "W" (str.at var58 487)))
(assert (= "7" (str.at var35 749)))
(assert (= "Z" (str.at var14 624)))
(assert (= "s" (str.at var37 77)))
(assert (= "p" (str.at var48 389)))
(assert (= "f" (str.at var8 793)))
(assert (= "1" (str.at var45 576)))
(assert (= "|" (str.at var21 920)))
(assert (= "w" (str.at var45 317)))
(assert (= "_" (str.at var8 631)))
(assert (= """" (str.at var13 23)))
(assert (= "5" (str.at var32 321)))
(assert (= "8" (str.at var43 802)))
(assert (= "+" (str.at var23 885)))
(assert (= "}" (str.at var54 770)))
(assert (= "A" (str.at var46 914)))
(assert (= "w" (str.at var8 937)))
(assert (= "c" (str.at var9 410)))
(assert (= "D" (str.at var44 609)))
(assert (= "T" (str.at var13 238)))
(assert (= "+" (str.at var47 44)))
(assert (= "w" (str.at var13 889)))
(assert (= "b" (str.at var21 343)))
(assert (= "~" (str.at var30 519)))
(assert (= "=" (str.at var45 559)))
(assert (= "k" (str.at var0 90)))
(assert (= "+" (str.at var0 940)))
(assert (= "'" (str.at var48 19)))
(assert (= "*" (str.at var52 175)))
(assert (= "h" (str.at var45 604)))
(assert (= "W" (str.at var57 304)))
(assert (= "x" (str.at var11 360)))
(assert (= "P" (str.at var6 175)))
(assert (= "W" (str.at var33 660)))
(assert (= "D" (str.at var23 472)))
(assert (= "!" (str.at var30 258)))
(assert (= "$" (str.at var41 22)))
(assert (= "e" (str.at var4 846)))
(assert (= "7" (str.at var36 744)))
(assert (= "k" (str.at var52 745)))
(assert (= "s" (str.at var53 444)))
(assert (= "p" (str.at var16 291)))
(assert (= "/" (str.at var34 341)))
(assert (= "R" (str.at var4 429)))
(assert (= "A" (str.at var12 844)))
(assert (= "N" (str.at var47 886)))
(assert (= "2" (str.at var1 306)))
(assert (= "S" (str.at var59 632)))
(assert (= "i" (str.at var17 687)))
(assert (= "." (str.at var19 304)))
(assert (= "|" (str.at var4 777)))
(assert (= "/" (str.at var54 469)))
(assert (= "5" (str.at var16 20)))
(assert (= "C" (str.at var40 171)))
(assert (= "E" (str.at var40 334)))
(assert (= "z" (str.at var11 861)))
(assert (= "-" (str.at var30 907)))
(assert (= ">" (str.at var35 128)))
(assert (= "p" (str.at var28 376)))
(assert (= ";" (str.at var41 676)))
(assert (= "-" (str.at var46 968)))
(assert (= "V" (str.at var10 944)))
(assert (= "~" (str.at var12 989)))
(assert (= "6" (str.at var12 116)))
(assert (= "P" (str.at var26 936)))
(assert (= "^" (str.at var37 74)))
(assert (= "5" (str.at var14 929)))
(assert (= "G" (str.at var8 476)))
(assert (= "@" (str.at var54 9)))
(assert (= "+" (str.at var60 224)))
(assert (= "$" (str.at var60 632)))
(assert (= "^" (str.at var33 822)))
(assert (= "5" (str.at var25 646)))
(assert (= "?" (str.at var7 65)))
(assert (= "w" (str.at var60 617)))
(assert (= "y" (str.at var16 384)))
(assert (= "8" (str.at var20 716)))
(assert (= "{" (str.at var39 289)))
(assert (= "$" (str.at var0 482)))
(assert (= "v" (str.at var8 776)))
(assert (= "?" (str.at var43 268)))
(assert (= "#" (str.at var41 369)))
(assert (= "(" (str.at var39 908)))
(assert (= "k" (str.at var35 957)))
(assert (= "A" (str.at var17 384)))
(assert (= "|" (str.at var20 896)))
(assert (= "C" (str.at var56 855)))
(assert (= ")" (str.at var47 390)))
(assert (= "[" (str.at var13 963)))
(assert (= "B" (str.at var5 789)))
(assert (= "#" (str.at var22 919)))
(assert (= "1" (str.at var19 260)))
(assert (= ";" (str.at var57 274)))
(assert (= "c" (str.at var6 581)))
(assert (= "C" (str.at var43 776)))
(assert (= "S" (str.at var54 209)))
(assert (= "f" (str.at var2 907)))
(assert (= "2" (str.at var28 76)))
(assert (= "=" (str.at var46 211)))
(assert (= "$" (str.at var50 866)))
(assert (= "0" (str.at var5 920)))
(assert (= "U" (str.at var60 97)))
(assert (= "q" (str.at var58 653)))
(assert (= "1" (str.at var6 540)))
(assert (= "m" (str.at var15 594)))
(assert (= "9" (str.at var25 542)))
(assert (= "G" (str.at var26 865)))
(assert (= "M" (str.at var35 338)))
(assert (= "F" (str.at var11 834)))
(assert (= "/" (str.at var0 688)))
(assert (= "c" (str.at var49 817)))
(assert (= "u" (str.at var7 744)))
(assert (= "E" (str.at var26 261)))
(assert (= "I" (str.at var5 822)))
(assert (= "{" (str.at var32 933)))
(assert (= "," (str.at var20 942)))
(assert (= "J" (str.at var33 820)))
(assert (= "5" (str.at var39 838)))
(assert (= "D" (str.at var28 428)))
(assert (= "o" (str.at var35 351)))
(assert (= "I" (str.at var8 516)))
(assert (= "F" (str.at var22 486)))
(assert (= "k" (str.at var47 929)))
(assert (= "l" (str.at var27 575)))
(assert (= "B" (str.at var8 473)))
(assert (= "l" (str.at var57 826)))
(assert (= "U" (str.at var58 667)))
(assert (= "7" (str.at var42 638)))
(assert (= "=" (str.at var9 636)))
(assert (= "E" (str.at var43 85)))
(assert (= "K" (str.at var54 924)))
(assert (= "=" (str.at var5 388)))
(assert (= "U" (str.at var28 578)))
(assert (= "U" (str.at var60 716)))
(assert (= ">" (str.at var17 671)))
(assert (= "2" (str.at var26 690)))
(assert (= "e" (str.at var15 412)))
(assert (= "t" (str.at var0 609)))
(assert (= "q" (str.at var53 872)))
(assert (= "{" (str.at var43 719)))
(assert (= "S" (str.at var19 363)))
(assert (= "H" (str.at var41 885)))
(assert (= "h" (str.at var53 992)))
(assert (= "y" (str.at var20 525)))
(assert (= ":" (str.at var6 888)))
(assert (= "i" (str.at var44 314)))
(assert (= "+" (str.at var23 516)))
(assert (= "p" (str.at var33 561)))
(assert (= "K" (str.at var56 541)))
(assert (= "\\" (str.at var28 82)))
(assert (= "{" (str.at var0 208)))
(assert (= "~" (str.at var21 805)))
(assert (= "i" (str.at var49 461)))
(assert (= "?" (str.at var3 747)))
(assert (= "K" (str.at var50 337)))
(assert (= """" (str.at var53 487)))
(assert (= "j" (str.at var48 325)))
(assert (= "0" (str.at var5 684)))
(assert (= "!" (str.at var58 525)))
(assert (= "U" (str.at var53 446)))
(assert (= "6" (str.at var31 860)))
(assert (= "r" (str.at var54 780)))
(assert (= "H" (str.at var20 104)))
(assert (= "p" (str.at var0 523)))
(assert (= "Z" (str.at var44 780)))
(assert (= "P" (str.at var11 290)))
(assert (= "x" (str.at var18 919)))
(assert (= "U" (str.at var1 507)))
(assert (= "r" (str.at var38 544)))
(assert (= "6" (str.at var30 810)))
(assert (= "\\" (str.at var23 958)))
(assert (= "8" (str.at var23 270)))
(assert (= "H" (str.at var16 175)))
(assert (= "[" (str.at var27 98)))
(assert (= "T" (str.at var51 549)))
(assert (= ")" (str.at var18 659)))
(assert (= "k" (str.at var26 73)))
(assert (= "3" (str.at var48 446)))
(assert (= "1" (str.at var11 556)))
(assert (= "u" (str.at var5 786)))
(assert (= "_" (str.at var14 170)))
(assert (= ";" (str.at var8 154)))
(assert (= "=" (str.at var45 259)))
(assert (= "9" (str.at var4 965)))
(assert (= "v" (str.at var29 701)))
(assert (= "I" (str.at var33 891)))
(assert (= "T" (str.at var1 663)))
(assert (= "^" (str.at var48 313)))
(assert (= "-" (str.at var39 763)))
(assert (= "N" (str.at var52 14)))
(assert (= "|" (str.at var27 578)))
(assert (= "v" (str.at var27 700)))
(assert (= "M" (str.at var49 175)))
(assert (= "A" (str.at var8 536)))
(assert (= "2" (str.at var37 98)))
(assert (= "3" (str.at var18 193)))
(assert (= "v" (str.at var7 438)))
(assert (= "%" (str.at var13 854)))
(assert (= "e" (str.at var41 37)))
(assert (= "i" (str.at var53 258)))
(assert (= "p" (str.at var48 64)))
(assert (= "p" (str.at var4 921)))
(assert (= "*" (str.at var2 21)))
(assert (= "#" (str.at var54 86)))
(assert (= "&" (str.at var40 512)))
(assert (= "O" (str.at var24 99)))
(assert (= "7" (str.at var46 891)))
(assert (= "U" (str.at var12 5)))
(assert (= "d" (str.at var46 866)))
(assert (= "3" (str.at var21 26)))
(assert (= "B" (str.at var54 904)))
(assert (= "Q" (str.at var5 575)))
(assert (= "c" (str.at var32 614)))
(assert (= "K" (str.at var47 94)))
(assert (= "*" (str.at var59 831)))
(assert (= "@" (str.at var9 936)))
(assert (= "q" (str.at var43 72)))
(assert (= "b" (str.at var43 227)))
(assert (= "d" (str.at var23 158)))
(assert (= "7" (str.at var21 99)))
(assert (= "*" (str.at var28 128)))
(assert (= "5" (str.at var7 413)))
(assert (= "/" (str.at var1 314)))
(assert (= "c" (str.at var38 145)))
(assert (= "U" (str.at var27 191)))
(assert (= "i" (str.at var22 206)))
(assert (= "[" (str.at var4 534)))
(assert (= "[" (str.at var37 105)))
(assert (= "x" (str.at var25 823)))
(assert (= "<" (str.at var9 597)))
(assert (= "l" (str.at var37 932)))
(assert (= "^" (str.at var55 89)))
(assert (= "[" (str.at var25 979)))
(assert (= "r" (str.at var35 767)))
(assert (= "H" (str.at var1 305)))
(assert (= "q" (str.at var31 901)))
(assert (= "2" (str.at var36 422)))
(assert (= "}" (str.at var37 675)))
(assert (= "V" (str.at var4 433)))
(assert (= "E" (str.at var29 941)))
(assert (= "^" (str.at var46 327)))
(assert (= "U" (str.at var38 549)))
(assert (= "K" (str.at var11 980)))
(assert (= "U" (str.at var54 742)))
(assert (= "H" (str.at var52 382)))
(assert (= "W" (str.at var7 802)))
(assert (= "{" (str.at var40 207)))
(assert (= ")" (str.at var53 690)))
(assert (= "#" (str.at var53 695)))
(assert (= "-" (str.at var14 92)))
(assert (= "S" (str.at var15 227)))
(assert (= "c" (str.at var27 298)))
(assert (= "h" (str.at var16 56)))
(assert (= "^" (str.at var0 392)))
(assert (= "{" (str.at var36 726)))
(assert (= "w" (str.at var54 223)))
(assert (= "7" (str.at var8 900)))
(assert (= ";" (str.at var30 695)))
(assert (= "z" (str.at var57 172)))
(assert (= "q" (str.at var6 329)))
(assert (= "#" (str.at var44 740)))
(assert (= "8" (str.at var12 66)))
(assert (= "7" (str.at var58 293)))
(assert (= "|" (str.at var42 706)))
(assert (= "5" (str.at var0 1)))
(assert (= "H" (str.at var19 145)))
(assert (= """" (str.at var43 159)))
(assert (= "R" (str.at var56 259)))
(assert (= "%" (str.at var35 486)))
(assert (= "l" (str.at var54 829)))
(assert (= "T" (str.at var59 138)))
(assert (= "[" (str.at var30 707)))
(assert (= "C" (str.at var32 62)))
(assert (= "$" (str.at var0 483)))
(assert (= "}" (str.at var51 509)))
(assert (= "D" (str.at var23 784)))
(assert (= ")" (str.at var18 605)))
(assert (= "E" (str.at var10 697)))
(assert (= "s" (str.at var2 74)))
(assert (= "N" (str.at var44 250)))
(assert (= "z" (str.at var31 267)))
(assert (= "t" (str.at var48 27)))
(assert (= "Q" (str.at var24 592)))
(assert (= "x" (str.at var9 921)))
(assert (= "W" (str.at var2 918)))
(assert (= "o" (str.at var60 7)))
(assert (= "C" (str.at var25 520)))
(assert (= "}" (str.at var1 683)))
(assert (= "G" (str.at var20 846)))
(assert (= "N" (str.at var12 811)))
(assert (= "\\" (str.at var10 803)))
(assert (= "k" (str.at var35 175)))
(assert (= "W" (str.at var32 493)))
(assert (= "6" (str.at var44 775)))
(assert (= "u" (str.at var4 368)))
(assert (= "|" (str.at var51 796)))
(assert (= "R" (str.at var53 181)))
(assert (= "C" (str.at var40 600)))
(assert (= "k" (str.at var22 698)))
(assert (= "1" (str.at var59 401)))
(assert (= "L" (str.at var51 384)))
(assert (= "Y" (str.at var1 19)))
(assert (= "O" (str.at var44 1)))
(assert (= "/" (str.at var19 344)))
(assert (= "i" (str.at var22 458)))
(check-sat)